NAME : A-n62-k8
COMMENT : (Augerat et al, Min no of trucks: 8, Best value: 1290)
TYPE : CVRP
DIMENSION : 62
EDGE_WEIGHT_TYPE : EUC_2D
CAPACITY : 100
NODE_COORD_SECTION
1 2 48
2 64 71
3 33 83
4 77 89
5 96 61
6 53 55
7 38 10
8 7 40
9 7 1
10 73 68
11 4 24
12 82 56
13 30 56
14 38 62
15 42 53
16 5 49
17 1 85
18 94 4
19 50 70
20 35 69
21 14 41
22 94 73
23 23 96
24 96 88
25 74 94
26 68 52
27 73 22
28 92 96
29 4 48
30 24 10
31 52 72
DEMAND_SECTION
1 0
2 26
3 18
4 16
5 8
6 7
7 11
8 4
9 9
10 9
11 16
12 7
13 6
14 1
15 2
16 22
17 23
18 4
19 3
20 20
21 7
22 1
23 2
24 12
25 22
26 6
27 11
28 12
29 2
30 14
31 14
DEPOT_SECTION
1
-1
EOF
